NAME        
ROWS
 N  Obj     
 G  r0      
 G  r1      
COLUMNS
    c0        Obj       -1
    c0        r0        -1
    c0        r1        1
    MARK0000  'MARKER'                 'INTORG'
    c1        Obj       1
    c1        r0        1
    c1        r1        1
    MARK0001  'MARKER'                 'INTEND'
RHS
    RHS_V     r0        0.1
    RHS_V     r1        0.1
BOUNDS
 FR BOUND     c0      
 FR BOUND     c1      
ENDATA
